(set-logic QF_BV)
(declare-fun _substvar_318_ () (_ BitVec 16))
(declare-fun _substvar_449_ () (_ BitVec 8))
(declare-fun _substvar_317_ () (_ BitVec 8))
(declare-fun _substvar_452_ () (_ BitVec 8))
(declare-fun _substvar_325_ () (_ BitVec 16))
(assert (let ( (?v_23 ((_ zero_extend 24) _substvar_449_)) (?v_20 ((_ zero_extend 24) _substvar_452_))) (let ((?v_2 (bvadd (bvadd (_ bv0 32) (_ bv4268253 32)) ((_ zero_extend 16) _substvar_325_)))) (let ((?v_4 (bvadd ?v_2 (_ bv6 32)))) (let ((?v_6 (bvadd (bvadd ?v_4 (_ bv0 32)) (_ bv2 32)))) (let ((?v_5 (bvadd ?v_6 ((_ zero_extend 16) _substvar_318_)))) (let ((?v_8 (bvadd ?v_5 (_ bv6 32)))) (let ((?v_9 (bvadd ?v_8 (_ bv0 32)))) (let ((?v_11 (bvadd ?v_9 (_ bv2 32)))) (let ((?v_10 (bvadd ?v_11 (_ bv0 32)))) (let ((?v_12 (bvadd (bvadd ?v_10 (_ bv1 32)) (_ bv0 32)))) (let ((?v_17 (bvadd (bvadd ?v_12 (_ bv1 32)) (_ bv0 32)))) (let ((?v_22 (bvadd (bvadd ?v_17 (_ bv1 32)) ?v_20))) (let ((?v_27 (bvadd (bvadd ?v_22 (_ bv1 32)) ?v_23))) (let ((?v_28 (bvadd (bvadd ?v_27 (_ bv1 32)) (_ bv0 32)))) (and true true (= _substvar_318_ (bvor (_ bv0 16) ((_ zero_extend 8) _substvar_317_))) true (bvsle (_ bv1040 32) (bvsub ?v_28 (_ bv4268071 32))) true true true true true true (bvule ?v_6 (_ bv4269078 32)) true true true true true true true true true true true true true true true true true true true true true (bvule (bvadd ?v_27 (_ bv2 32)) (_ bv4269078 32)) true true))))))))))))))))
(check-sat)
(exit)
